language Essence 1.3

letting codeWordLength be 5
letting dist be
        function((1, 1) --> 0, (1, 2) --> 1, (1, 3) --> 1, (1, 4) --> 1, (1, 5) --> 2, (1, 6) --> 1, (1, 7) --> 1,
                 (1, 8) --> 0, (1, 9) --> 5, (1, 10) --> 5, (1, 11) --> 0, (1, 12) --> 0, (1, 13) --> 4, (1, 14) --> 0,
                 (1, 15) --> 2, (1, 16) --> 0, (1, 17) --> 5, (1, 18) --> 4, (1, 19) --> 3, (1, 20) --> 0,
                 (1, 21) --> 0, (1, 22) --> 0, (1, 23) --> 2, (2, 1) --> 1, (2, 2) --> 0, (2, 3) --> 2, (2, 4) --> 4,
                 (2, 5) --> 2, (2, 6) --> 1, (2, 7) --> 1, (2, 8) --> 1, (2, 9) --> 1, (2, 10) --> 4, (2, 11) --> 2,
                 (2, 12) --> 1, (2, 13) --> 3, (2, 14) --> 1, (2, 15) --> 3, (2, 16) --> 3, (2, 17) --> 2,
                 (2, 18) --> 0, (2, 19) --> 4, (2, 20) --> 1, (2, 21) --> 3, (2, 22) --> 5, (2, 23) --> 4, (3, 1) --> 1,
                 (3, 2) --> 2, (3, 3) --> 0, (3, 4) --> 1, (3, 5) --> 4, (3, 6) --> 4, (3, 7) --> 3, (3, 8) --> 4,
                 (3, 9) --> 3, (3, 10) --> 5, (3, 11) --> 0, (3, 12) --> 1, (3, 13) --> 4, (3, 14) --> 0, (3, 15) --> 0,
                 (3, 16) --> 0, (3, 17) --> 4, (3, 18) --> 4, (3, 19) --> 0, (3, 20) --> 3, (3, 21) --> 5,
                 (3, 22) --> 1, (3, 23) --> 4, (4, 1) --> 1, (4, 2) --> 4, (4, 3) --> 1, (4, 4) --> 0, (4, 5) --> 5,
                 (4, 6) --> 0, (4, 7) --> 3, (4, 8) --> 2, (4, 9) --> 0, (4, 10) --> 5, (4, 11) --> 0, (4, 12) --> 2,
                 (4, 13) --> 1, (4, 14) --> 5, (4, 15) --> 1, (4, 16) --> 3, (4, 17) --> 2, (4, 18) --> 2,
                 (4, 19) --> 2, (4, 20) --> 4, (4, 21) --> 3, (4, 22) --> 5, (4, 23) --> 4, (5, 1) --> 2, (5, 2) --> 2,
                 (5, 3) --> 4, (5, 4) --> 5, (5, 5) --> 0, (5, 6) --> 5, (5, 7) --> 0, (5, 8) --> 2, (5, 9) --> 0,
                 (5, 10) --> 2, (5, 11) --> 4, (5, 12) --> 1, (5, 13) --> 5, (5, 14) --> 4, (5, 15) --> 1,
                 (5, 16) --> 4, (5, 17) --> 2, (5, 18) --> 4, (5, 19) --> 2, (5, 20) --> 3, (5, 21) --> 0,
                 (5, 22) --> 4, (5, 23) --> 3, (6, 1) --> 1, (6, 2) --> 1, (6, 3) --> 4, (6, 4) --> 0, (6, 5) --> 5,
                 (6, 6) --> 0, (6, 7) --> 0, (6, 8) --> 2, (6, 9) --> 5, (6, 10) --> 2, (6, 11) --> 0, (6, 12) --> 4,
                 (6, 13) --> 5, (6, 14) --> 0, (6, 15) --> 3, (6, 16) --> 3, (6, 17) --> 2, (6, 18) --> 0,
                 (6, 19) --> 0, (6, 20) --> 1, (6, 21) --> 0, (6, 22) --> 3, (6, 23) --> 5, (7, 1) --> 1, (7, 2) --> 1,
                 (7, 3) --> 3, (7, 4) --> 3, (7, 5) --> 0, (7, 6) --> 0, (7, 7) --> 0, (7, 8) --> 4, (7, 9) --> 4,
                 (7, 10) --> 1, (7, 11) --> 0, (7, 12) --> 3, (7, 13) --> 5, (7, 14) --> 4, (7, 15) --> 4,
                 (7, 16) --> 1, (7, 17) --> 5, (7, 18) --> 1, (7, 19) --> 4, (7, 20) --> 5, (7, 21) --> 4,
                 (7, 22) --> 5, (7, 23) --> 3, (8, 1) --> 0, (8, 2) --> 1, (8, 3) --> 4, (8, 4) --> 2, (8, 5) --> 2,
                 (8, 6) --> 2, (8, 7) --> 4, (8, 8) --> 0, (8, 9) --> 4, (8, 10) --> 4, (8, 11) --> 4, (8, 12) --> 0,
                 (8, 13) --> 5, (8, 14) --> 1, (8, 15) --> 5, (8, 16) --> 3, (8, 17) --> 4, (8, 18) --> 2,
                 (8, 19) --> 0, (8, 20) --> 3, (8, 21) --> 1, (8, 22) --> 5, (8, 23) --> 3, (9, 1) --> 5, (9, 2) --> 1,
                 (9, 3) --> 3, (9, 4) --> 0, (9, 5) --> 0, (9, 6) --> 5, (9, 7) --> 4, (9, 8) --> 4, (9, 9) --> 0,
                 (9, 10) --> 1, (9, 11) --> 4, (9, 12) --> 5, (9, 13) --> 2, (9, 14) --> 1, (9, 15) --> 2,
                 (9, 16) --> 2, (9, 17) --> 2, (9, 18) --> 4, (9, 19) --> 4, (9, 20) --> 1, (9, 21) --> 3,
                 (9, 22) --> 4, (9, 23) --> 1, (10, 1) --> 5, (10, 2) --> 4, (10, 3) --> 5, (10, 4) --> 5,
                 (10, 5) --> 2, (10, 6) --> 2, (10, 7) --> 1, (10, 8) --> 4, (10, 9) --> 1, (10, 10) --> 0,
                 (10, 11) --> 4, (10, 12) --> 2, (10, 13) --> 5, (10, 14) --> 2, (10, 15) --> 4, (10, 16) --> 5,
                 (10, 17) --> 0, (10, 18) --> 0, (10, 19) --> 3, (10, 20) --> 0, (10, 21) --> 5, (10, 22) --> 2,
                 (10, 23) --> 3, (11, 1) --> 0, (11, 2) --> 2, (11, 3) --> 0, (11, 4) --> 0, (11, 5) --> 4,
                 (11, 6) --> 0, (11, 7) --> 0, (11, 8) --> 4, (11, 9) --> 4, (11, 10) --> 4, (11, 11) --> 0,
                 (11, 12) --> 4, (11, 13) --> 3, (11, 14) --> 3, (11, 15) --> 5, (11, 16) --> 5, (11, 17) --> 0,
                 (11, 18) --> 5, (11, 19) --> 2, (11, 20) --> 0, (11, 21) --> 3, (11, 22) --> 5, (11, 23) --> 4,
                 (12, 1) --> 0, (12, 2) --> 1, (12, 3) --> 1, (12, 4) --> 2, (12, 5) --> 1, (12, 6) --> 4,
                 (12, 7) --> 3, (12, 8) --> 0, (12, 9) --> 5, (12, 10) --> 2, (12, 11) --> 4, (12, 12) --> 0,
                 (12, 13) --> 1, (12, 14) --> 0, (12, 15) --> 2, (12, 16) --> 2, (12, 17) --> 5, (12, 18) --> 3,
                 (12, 19) --> 2, (12, 20) --> 2, (12, 21) --> 1, (12, 22) --> 2, (12, 23) --> 2, (13, 1) --> 4,
                 (13, 2) --> 3, (13, 3) --> 4, (13, 4) --> 1, (13, 5) --> 5, (13, 6) --> 5, (13, 7) --> 5,
                 (13, 8) --> 5, (13, 9) --> 2, (13, 10) --> 5, (13, 11) --> 3, (13, 12) --> 1, (13, 13) --> 0,
                 (13, 14) --> 2, (13, 15) --> 3, (13, 16) --> 3, (13, 17) --> 4, (13, 18) --> 3, (13, 19) --> 4,
                 (13, 20) --> 0, (13, 21) --> 1, (13, 22) --> 5, (13, 23) --> 2, (14, 1) --> 0, (14, 2) --> 1,
                 (14, 3) --> 0, (14, 4) --> 5, (14, 5) --> 4, (14, 6) --> 0, (14, 7) --> 4, (14, 8) --> 1,
                 (14, 9) --> 1, (14, 10) --> 2, (14, 11) --> 3, (14, 12) --> 0, (14, 13) --> 2, (14, 14) --> 0,
                 (14, 15) --> 2, (14, 16) --> 2, (14, 17) --> 0, (14, 18) --> 2, (14, 19) --> 2, (14, 20) --> 2,
                 (14, 21) --> 3, (14, 22) --> 4, (14, 23) --> 4, (15, 1) --> 2, (15, 2) --> 3, (15, 3) --> 0,
                 (15, 4) --> 1, (15, 5) --> 1, (15, 6) --> 3, (15, 7) --> 4, (15, 8) --> 5, (15, 9) --> 2,
                 (15, 10) --> 4, (15, 11) --> 5, (15, 12) --> 2, (15, 13) --> 3, (15, 14) --> 2, (15, 15) --> 0,
                 (15, 16) --> 0, (15, 17) --> 2, (15, 18) --> 5, (15, 19) --> 5, (15, 20) --> 2, (15, 21) --> 2,
                 (15, 22) --> 5, (15, 23) --> 4, (16, 1) --> 0, (16, 2) --> 3, (16, 3) --> 0, (16, 4) --> 3,
                 (16, 5) --> 4, (16, 6) --> 3, (16, 7) --> 1, (16, 8) --> 3, (16, 9) --> 2, (16, 10) --> 5,
                 (16, 11) --> 5, (16, 12) --> 2, (16, 13) --> 3, (16, 14) --> 2, (16, 15) --> 0, (16, 16) --> 0,
                 (16, 17) --> 3, (16, 18) --> 1, (16, 19) --> 4, (16, 20) --> 3, (16, 21) --> 0, (16, 22) --> 5,
                 (16, 23) --> 0, (17, 1) --> 5, (17, 2) --> 2, (17, 3) --> 4, (17, 4) --> 2, (17, 5) --> 2,
                 (17, 6) --> 2, (17, 7) --> 5, (17, 8) --> 4, (17, 9) --> 2, (17, 10) --> 0, (17, 11) --> 0,
                 (17, 12) --> 5, (17, 13) --> 4, (17, 14) --> 0, (17, 15) --> 2, (17, 16) --> 3, (17, 17) --> 0,
                 (17, 18) --> 5, (17, 19) --> 3, (17, 20) --> 4, (17, 21) --> 3, (17, 22) --> 0, (17, 23) --> 4,
                 (18, 1) --> 4, (18, 2) --> 0, (18, 3) --> 4, (18, 4) --> 2, (18, 5) --> 4, (18, 6) --> 0,
                 (18, 7) --> 1, (18, 8) --> 2, (18, 9) --> 4, (18, 10) --> 0, (18, 11) --> 5, (18, 12) --> 3,
                 (18, 13) --> 3, (18, 14) --> 2, (18, 15) --> 5, (18, 16) --> 1, (18, 17) --> 5, (18, 18) --> 0,
                 (18, 19) --> 5, (18, 20) --> 2, (18, 21) --> 0, (18, 22) --> 4, (18, 23) --> 0, (19, 1) --> 3,
                 (19, 2) --> 4, (19, 3) --> 0, (19, 4) --> 2, (19, 5) --> 2, (19, 6) --> 0, (19, 7) --> 4,
                 (19, 8) --> 0, (19, 9) --> 4, (19, 10) --> 3, (19, 11) --> 2, (19, 12) --> 2, (19, 13) --> 4,
                 (19, 14) --> 2, (19, 15) --> 5, (19, 16) --> 4, (19, 17) --> 3, (19, 18) --> 5, (19, 19) --> 0,
                 (19, 20) --> 5, (19, 21) --> 3, (19, 22) --> 2, (19, 23) --> 3, (20, 1) --> 0, (20, 2) --> 1,
                 (20, 3) --> 3, (20, 4) --> 4, (20, 5) --> 3, (20, 6) --> 1, (20, 7) --> 5, (20, 8) --> 3,
                 (20, 9) --> 1, (20, 10) --> 0, (20, 11) --> 0, (20, 12) --> 2, (20, 13) --> 0, (20, 14) --> 2,
                 (20, 15) --> 2, (20, 16) --> 3, (20, 17) --> 4, (20, 18) --> 2, (20, 19) --> 5, (20, 20) --> 0,
                 (20, 21) --> 3, (20, 22) --> 5, (20, 23) --> 2, (21, 1) --> 0, (21, 2) --> 3, (21, 3) --> 5,
                 (21, 4) --> 3, (21, 5) --> 0, (21, 6) --> 0, (21, 7) --> 4, (21, 8) --> 1, (21, 9) --> 3,
                 (21, 10) --> 5, (21, 11) --> 3, (21, 12) --> 1, (21, 13) --> 1, (21, 14) --> 3, (21, 15) --> 2,
                 (21, 16) --> 0, (21, 17) --> 3, (21, 18) --> 0, (21, 19) --> 3, (21, 20) --> 3, (21, 21) --> 0,
                 (21, 22) --> 1, (21, 23) --> 5, (22, 1) --> 0, (22, 2) --> 5, (22, 3) --> 1, (22, 4) --> 5,
                 (22, 5) --> 4, (22, 6) --> 3, (22, 7) --> 5, (22, 8) --> 5, (22, 9) --> 4, (22, 10) --> 2,
                 (22, 11) --> 5, (22, 12) --> 2, (22, 13) --> 5, (22, 14) --> 4, (22, 15) --> 5, (22, 16) --> 5,
                 (22, 17) --> 0, (22, 18) --> 4, (22, 19) --> 2, (22, 20) --> 5, (22, 21) --> 1, (22, 22) --> 0,
                 (22, 23) --> 2, (23, 1) --> 2, (23, 2) --> 4, (23, 3) --> 4, (23, 4) --> 4, (23, 5) --> 3,
                 (23, 6) --> 5, (23, 7) --> 3, (23, 8) --> 3, (23, 9) --> 1, (23, 10) --> 3, (23, 11) --> 4,
                 (23, 12) --> 2, (23, 13) --> 2, (23, 14) --> 4, (23, 15) --> 4, (23, 16) --> 0, (23, 17) --> 4,
                 (23, 18) --> 0, (23, 19) --> 3, (23, 20) --> 2, (23, 21) --> 5, (23, 22) --> 2, (23, 23) --> 0)
letting maxDist be 5
letting minDist be 9
letting nbCharacter be 23
letting numOfCodeWords be 34
